# Generated by ConicBenchmarkUtilities.jl
VER
2

OBJSENSE
MIN

VAR
289 1
F 289

INT
90
33
34
35
36
37
38
39
40
41
42
43
44
45
46
47
48
49
50
51
52
53
54
55
56
57
58
59
60
61
62
63
64
65
66
67
68
69
70
71
72
73
74
75
76
77
158
160
162
164
166
168
169
170
171
174
177
180
181
182
183
186
189
192
195
198
201
203
205
207
208
209
210
211
212
213
215
217
219
220
221
222
224
226
228
230
232
234
236
238
240

CON
949 883
L= 1
L= 1
L= 1
L= 1
L= 1
L= 1
L= 1
L= 1
L= 1
L= 1
L= 1
L= 1
L= 1
L= 1
L= 1
L= 1
L= 1
L= 1
L= 1
L= 1
L= 1
L= 1
L= 1
L= 1
L= 1
L= 1
L= 1
L= 1
L= 1
L= 1
L= 1
EXP 3
L+ 1
EXP 3
L+ 1
EXP 3
L+ 1
L+ 1
L+ 1
L+ 1
L+ 1
L+ 1
L+ 1
EXP 3
L+ 1
EXP 3
L+ 1
EXP 3
L+ 1
L+ 1
L+ 1
L+ 1
L+ 1
L+ 1
L+ 1
L+ 1
L+ 1
L+ 1
L+ 1
L+ 1
L+ 1
L+ 1
L+ 1
L+ 1
L+ 1
L+ 1
L+ 1
EXP 3
L+ 1
EXP 3
L+ 1
EXP 3
L+ 1
L+ 1
L+ 1
L+ 1
L+ 1
L+ 1
L+ 1
L+ 1
L+ 1
L+ 1
L+ 1
L+ 1
L+ 1
L+ 1
L+ 1
L+ 1
L+ 1
L+ 1
L+ 1
L+ 1
L+ 1
L+ 1
L+ 1
L+ 1
L+ 1
L+ 1
L+ 1
L+ 1
EXP 3
L+ 1
EXP 3
L+ 1
EXP 3
L+ 1
L+ 1
L+ 1
L+ 1
L+ 1
L+ 1
L+ 1
EXP 3
L+ 1
EXP 3
L+ 1
EXP 3
L+ 1
L+ 1
L+ 1
L+ 1
L+ 1
L+ 1
L+ 1
EXP 3
L+ 1
EXP 3
L+ 1
EXP 3
L+ 1
L+ 1
L+ 1
L+ 1
L+ 1
L+ 1
L+ 1
L+ 1
L+ 1
L+ 1
L+ 1
L+ 1
L+ 1
L+ 1
L+ 1
L+ 1
L+ 1
L+ 1
L+ 1
L+ 1
L+ 1
L+ 1
L+ 1
L+ 1
L+ 1
L+ 1
L+ 1
L+ 1
L+ 1
L+ 1
L+ 1
EXP 3
L+ 1
EXP 3
L+ 1
EXP 3
L+ 1
L+ 1
L+ 1
L+ 1
L+ 1
L+ 1
L+ 1
L+ 1
L+ 1
L+ 1
L+ 1
L+ 1
L+ 1
L+ 1
L+ 1
L+ 1
L+ 1
L+ 1
L+ 1
L+ 1
L+ 1
L+ 1
L+ 1
L+ 1
L+ 1
L+ 1
L+ 1
L+ 1
EXP 3
L+ 1
EXP 3
L+ 1
EXP 3
L+ 1
L+ 1
L+ 1
L+ 1
L+ 1
L+ 1
L+ 1
EXP 3
L+ 1
EXP 3
L+ 1
EXP 3
L+ 1
L+ 1
L+ 1
L+ 1
L+ 1
L+ 1
L+ 1
EXP 3
L+ 1
EXP 3
L+ 1
EXP 3
L+ 1
EXP 3
L+ 1
EXP 3
L+ 1
EXP 3
L+ 1
L+ 1
L+ 1
L+ 1
L+ 1
L+ 1
L+ 1
L+ 1
L+ 1
L+ 1
L+ 1
L+ 1
L+ 1
L+ 1
L+ 1
L+ 1
L+ 1
L+ 1
L+ 1
L+ 1
L+ 1
L+ 1
L+ 1
L+ 1
L+ 1
L+ 1
L+ 1
L+ 1
L+ 1
L+ 1
L+ 1
L+ 1
L+ 1
L+ 1
L+ 1
L+ 1
L+ 1
L+ 1
L+ 1
L+ 1
L+ 1
L+ 1
L+ 1
L+ 1
L+ 1
L+ 1
L+ 1
L+ 1
L+ 1
L+ 1
L+ 1
L+ 1
L+ 1
L+ 1
L+ 1
L+ 1
L+ 1
L+ 1
L+ 1
L+ 1
L+ 1
L+ 1
L+ 1
L+ 1
L+ 1
L+ 1
L+ 1
L+ 1
L+ 1
L+ 1
L+ 1
L+ 1
L+ 1
L+ 1
L+ 1
L+ 1
L+ 1
L+ 1
L+ 1
L+ 1
L+ 1
L+ 1
L+ 1
L+ 1
L+ 1
L+ 1
L+ 1
L+ 1
L+ 1
L+ 1
L+ 1
L+ 1
L+ 1
L+ 1
L+ 1
L+ 1
L+ 1
L+ 1
L+ 1
L+ 1
L+ 1
L+ 1
L+ 1
L+ 1
L+ 1
L+ 1
L+ 1
L+ 1
L+ 1
L+ 1
L+ 1
L+ 1
L+ 1
L+ 1
L+ 1
L+ 1
L+ 1
L+ 1
L+ 1
L+ 1
L+ 1
L+ 1
L+ 1
L+ 1
L+ 1
L+ 1
L+ 1
L+ 1
L+ 1
L+ 1
L+ 1
L+ 1
L+ 1
L+ 1
L+ 1
L+ 1
L+ 1
L+ 1
L+ 1
L+ 1
L+ 1
L+ 1
L+ 1
L+ 1
L+ 1
L+ 1
L+ 1
L+ 1
L+ 1
L+ 1
L+ 1
L+ 1
L+ 1
L+ 1
L+ 1
L+ 1
L+ 1
L+ 1
L+ 1
L+ 1
L+ 1
L+ 1
L+ 1
L+ 1
L+ 1
L+ 1
L+ 1
L+ 1
L+ 1
L+ 1
L+ 1
L+ 1
L+ 1
L+ 1
L+ 1
L+ 1
L+ 1
L+ 1
L+ 1
L+ 1
L+ 1
L+ 1
L+ 1
L+ 1
L+ 1
L+ 1
L+ 1
L+ 1
L+ 1
L+ 1
L+ 1
L+ 1
L+ 1
L+ 1
L+ 1
L+ 1
L+ 1
L+ 1
L+ 1
L+ 1
L+ 1
L+ 1
L+ 1
L+ 1
L+ 1
L+ 1
L+ 1
L+ 1
L+ 1
L+ 1
L+ 1
L+ 1
L+ 1
L+ 1
L+ 1
L+ 1
L+ 1
L+ 1
L+ 1
L+ 1
L+ 1
L+ 1
L+ 1
L+ 1
L+ 1
L+ 1
L+ 1
L+ 1
L+ 1
L+ 1
L+ 1
L+ 1
L+ 1
L+ 1
L+ 1
L+ 1
L+ 1
L+ 1
L+ 1
L+ 1
L+ 1
L+ 1
L+ 1
L+ 1
L+ 1
L+ 1
L+ 1
L+ 1
L+ 1
L+ 1
L+ 1
L+ 1
L+ 1
L+ 1
L+ 1
L+ 1
L+ 1
L+ 1
L+ 1
L+ 1
L+ 1
L+ 1
L+ 1
L+ 1
L+ 1
L+ 1
L+ 1
L+ 1
L+ 1
L+ 1
L+ 1
L+ 1
L+ 1
L+ 1
L+ 1
L+ 1
L+ 1
L+ 1
L+ 1
L+ 1
L= 1
L= 1
L= 1
L+ 1
L+ 1
L+ 1
L+ 1
L+ 1
L+ 1
L+ 1
L+ 1
L+ 1
L+ 1
L+ 1
L+ 1
L+ 1
L+ 1
L+ 1
L+ 1
L+ 1
L+ 1
L+ 1
L+ 1
L+ 1
L+ 1
L+ 1
L+ 1
L+ 1
L+ 1
L+ 1
L+ 1
L+ 1
L+ 1
L+ 1
L+ 1
L+ 1
L+ 1
L+ 1
L+ 1
L+ 1
L+ 1
L+ 1
L+ 1
L+ 1
L+ 1
L+ 1
L+ 1
L+ 1
L+ 1
L+ 1
L+ 1
L+ 1
L+ 1
L+ 1
L+ 1
L+ 1
L+ 1
L+ 1
L+ 1
L+ 1
L+ 1
L+ 1
L+ 1
L+ 1
L+ 1
L+ 1
L+ 1
L+ 1
L+ 1
L+ 1
L+ 1
L+ 1
L+ 1
L+ 1
L+ 1
L+ 1
L+ 1
L+ 1
L+ 1
L+ 1
L+ 1
L+ 1
L+ 1
L+ 1
L+ 1
L+ 1
L+ 1
L+ 1
L+ 1
L+ 1
L+ 1
L+ 1
L+ 1
L+ 1
L+ 1
L+ 1
L+ 1
L+ 1
L+ 1
L+ 1
L+ 1
L+ 1
L+ 1
L+ 1
L+ 1
L+ 1
L+ 1
L+ 1
L+ 1
L+ 1
L+ 1
L+ 1
L+ 1
L+ 1
L+ 1
L+ 1
L+ 1
L+ 1
L+ 1
L+ 1
L+ 1
L+ 1
L+ 1
L+ 1
L+ 1
L+ 1
L+ 1
L+ 1
L+ 1
L+ 1
L+ 1
L+ 1
L+ 1
L+ 1
L+ 1
L+ 1
L+ 1
L+ 1
L+ 1
L+ 1
L+ 1
L+ 1
L+ 1
L+ 1
L+ 1
L+ 1
L+ 1
L+ 1
L+ 1
L+ 1
L+ 1
L+ 1
L+ 1
L+ 1
L+ 1
L+ 1
L+ 1
L+ 1
L+ 1
L+ 1
L+ 1
L+ 1
L+ 1
L+ 1
L+ 1
L+ 1
L+ 1
L+ 1
L+ 1
L+ 1
L+ 1
L+ 1
L+ 1
L+ 1
L+ 1
L+ 1
L+ 1
L+ 1
L+ 1
L+ 1
L+ 1
L+ 1
L+ 1
L+ 1
L+ 1
L+ 1
L+ 1
L+ 1
L+ 1
L+ 1
L+ 1
L+ 1
L+ 1
L+ 1
L+ 1
L+ 1
L+ 1
L+ 1
L+ 1
L+ 1
L+ 1
L+ 1
L+ 1
L+ 1
L+ 1
L+ 1
L+ 1
L+ 1
L+ 1
L+ 1
L+ 1
L+ 1
L+ 1
L+ 1
L+ 1
L+ 1
L+ 1
L+ 1
L+ 1
L+ 1
L+ 1
L+ 1
L+ 1
L+ 1
L+ 1
L+ 1
L+ 1
L+ 1
L+ 1
L+ 1
L+ 1
L+ 1
L+ 1
L+ 1
L+ 1
L+ 1
L+ 1
L+ 1
L+ 1
L+ 1
L+ 1
L+ 1
L+ 1
L+ 1
L+ 1
L+ 1
L+ 1
L+ 1
L+ 1
L+ 1
L+ 1
L+ 1
L+ 1
L+ 1
L+ 1
L+ 1
L+ 1
L+ 1
L+ 1
L+ 1
L+ 1
L+ 1
L+ 1
L+ 1
L+ 1
L+ 1
L+ 1
L+ 1
L+ 1
L+ 1
L+ 1
L+ 1
L+ 1
L+ 1
L+ 1
L+ 1
L+ 1
L+ 1
L+ 1
L+ 1
L+ 1
L+ 1
L+ 1
L+ 1
L+ 1
L+ 1
L+ 1
L+ 1
L+ 1
L+ 1
L+ 1
L+ 1
L+ 1
L+ 1
L+ 1
L+ 1
L+ 1
L+ 1
L+ 1
L+ 1
L+ 1
L+ 1
L+ 1
L+ 1
L+ 1
L+ 1
L+ 1
L+ 1
L+ 1
L+ 1
L+ 1
L+ 1
L+ 1
L+ 1
L+ 1
L+ 1
L+ 1
L+ 1
L+ 1
L+ 1
L+ 1
L+ 1
L+ 1
L+ 1
L+ 1
L+ 1
L+ 1
L+ 1
L+ 1
L+ 1
L+ 1
L+ 1
L+ 1
L+ 1
L+ 1
L+ 1
L+ 1
L+ 1
L+ 1
L+ 1
L+ 1
L+ 1
L+ 1
L+ 1
L+ 1
L+ 1
L+ 1
L+ 1
L+ 1
L+ 1
L+ 1
L+ 1
L+ 1
L+ 1
L+ 1
L+ 1
L+ 1
L+ 1
L+ 1
L+ 1
L+ 1
L+ 1
L+ 1
L+ 1
L+ 1
L+ 1
L+ 1
L+ 1
L+ 1
L+ 1
L+ 1
L+ 1
L+ 1
L+ 1
L+ 1

OBJACOORD
1
78 -1.0

ACOORD
1711
0 0 -1.0
1 0 1.0
637 0 1.0
638 0 -1.0
0 1 -1.0
2 1 1.0
639 1 1.0
640 1 -1.0
0 2 -1.0
3 2 1.0
641 2 1.0
642 2 -1.0
0 3 5.0
7 3 -1.0
658 3 1.0
0 4 10.0
8 4 -1.0
659 4 1.0
0 5 5.0
9 5 -1.0
660 5 1.0
0 6 -2.0
103 6 0.5
106 6 -0.5
112 6 -1.0
673 6 1.0
674 6 -1.0
0 7 -1.0
104 7 0.5
107 7 -0.5
113 7 -1.0
675 7 1.0
676 7 -1.0
0 8 -2.0
105 8 0.5
108 8 -0.5
114 8 -1.0
677 8 1.0
678 8 -1.0
0 9 500.0
25 9 1.0
184 9 -1.0
187 9 1.0
193 9 -1.0
715 9 1.0
0 10 600.0
26 10 1.0
185 10 -1.0
188 10 1.0
194 10 -1.0
716 10 1.0
0 11 350.0
27 11 1.0
186 11 -1.0
189 11 1.0
195 11 -1.0
717 11 1.0
0 12 350.0
28 12 1.0
199 12 -1.0
211 12 -1.0
718 12 1.0
0 13 400.0
29 13 1.0
203 13 -1.0
212 13 -1.0
719 13 1.0
0 14 450.0
30 14 1.0
207 14 -1.0
213 14 -1.0
720 14 1.0
0 15 -10.0
220 15 1.0
223 15 -1.0
229 15 -1.0
727 15 1.0
728 15 -1.0
0 16 -5.0
221 16 1.0
224 16 -1.0
230 16 -1.0
729 16 1.0
730 16 -1.0
0 17 -5.0
222 17 1.0
225 17 -1.0
231 17 -1.0
731 17 1.0
732 17 -1.0
0 18 -5.0
22 18 -1.0
733 18 1.0
734 18 -1.0
0 19 -5.0
23 19 -1.0
735 19 1.0
736 19 -1.0
0 20 -5.0
24 20 -1.0
737 20 1.0
738 20 -1.0
0 21 80.0
214 21 -1.0
217 21 1.0
220 21 -1.0
223 21 1.0
232 21 -1.0
757 21 1.0
0 22 130.0
215 22 -1.0
218 22 1.0
221 22 -1.0
224 22 1.0
233 22 -1.0
758 22 1.0
0 23 215.0
216 23 -1.0
219 23 1.0
222 23 -1.0
225 23 1.0
234 23 -1.0
759 23 1.0
0 24 110.0
238 24 -1.0
250 24 -1.0
760 24 1.0
0 25 120.0
242 25 -1.0
251 25 -1.0
761 25 1.0
0 26 125.0
246 26 -1.0
252 26 -1.0
762 26 1.0
0 27 110.0
256 27 -1.0
268 27 -1.0
763 27 1.0
0 28 130.0
260 28 -1.0
269 28 -1.0
764 28 1.0
0 29 140.0
264 29 -1.0
270 29 -1.0
765 29 1.0
0 30 80.0
274 30 -1.0
286 30 -1.0
301 30 -1.0
766 30 1.0
0 31 90.0
278 31 -1.0
290 31 -1.0
302 31 -1.0
767 31 1.0
0 32 120.0
282 32 -1.0
294 32 -1.0
303 32 -1.0
768 32 1.0
0 33 -5.0
304 33 -5.0
349 33 5.0
439 33 -1.0
440 33 -1.0
441 33 -1.0
443 33 -1.0
529 33 1.0
859 33 1.0
860 33 -1.0
0 34 -4.0
305 34 -4.0
350 34 4.0
439 34 -1.0
441 34 -1.0
442 34 -1.0
444 34 -1.0
530 34 1.0
861 34 1.0
862 34 -1.0
0 35 -6.0
306 35 -6.0
351 35 6.0
440 35 -1.0
442 35 -1.0
443 35 -1.0
444 35 -1.0
531 35 1.0
863 35 1.0
864 35 -1.0
0 36 -8.0
307 36 -8.0
352 36 8.0
445 36 -1.0
446 36 -1.0
447 36 -1.0
449 36 -1.0
532 36 1.0
865 36 1.0
866 36 -1.0
0 37 -7.0
308 37 -7.0
353 37 7.0
445 37 -1.0
447 37 -1.0
448 37 -1.0
450 37 -1.0
533 37 1.0
867 37 1.0
868 37 -1.0
0 38 -6.0
309 38 -6.0
354 38 6.0
446 38 -1.0
448 38 -1.0
449 38 -1.0
450 38 -1.0
534 38 1.0
869 38 1.0
870 38 -1.0
0 39 -6.0
310 39 -6.0
355 39 6.0
451 39 -1.0
452 39 -1.0
453 39 -1.0
455 39 -1.0
535 39 1.0
871 39 1.0
872 39 -1.0
0 40 -9.0
311 40 -9.0
356 40 9.0
451 40 -1.0
453 40 -1.0
454 40 -1.0
456 40 -1.0
536 40 1.0
873 40 1.0
874 40 -1.0
0 41 -4.0
312 41 -4.0
357 41 4.0
452 41 -1.0
454 41 -1.0
455 41 -1.0
456 41 -1.0
537 41 1.0
875 41 1.0
876 41 -1.0
0 42 -10.0
313 42 -10.0
358 42 10.0
457 42 -1.0
458 42 -1.0
459 42 -1.0
461 42 -1.0
538 42 1.0
877 42 1.0
878 42 -1.0
0 43 -9.0
314 43 -9.0
359 43 9.0
457 43 -1.0
459 43 -1.0
460 43 -1.0
462 43 -1.0
539 43 1.0
879 43 1.0
880 43 -1.0
0 44 -5.0
315 44 -5.0
360 44 5.0
458 44 -1.0
460 44 -1.0
461 44 -1.0
462 44 -1.0
540 44 1.0
881 44 1.0
882 44 -1.0
0 45 -6.0
316 45 -6.0
361 45 6.0
463 45 -1.0
464 45 -1.0
465 45 -1.0
467 45 -1.0
541 45 1.0
883 45 1.0
884 45 -1.0
0 46 -10.0
317 46 -10.0
362 46 10.0
463 46 -1.0
465 46 -1.0
466 46 -1.0
468 46 -1.0
542 46 1.0
885 46 1.0
886 46 -1.0
0 47 -6.0
318 47 -6.0
363 47 6.0
464 47 -1.0
466 47 -1.0
467 47 -1.0
468 47 -1.0
543 47 1.0
887 47 1.0
888 47 -1.0
0 48 -7.0
319 48 -7.0
364 48 7.0
469 48 -1.0
470 48 -1.0
471 48 -1.0
473 48 -1.0
544 48 1.0
889 48 1.0
890 48 -1.0
0 49 -7.0
320 49 -7.0
365 49 7.0
469 49 -1.0
471 49 -1.0
472 49 -1.0
474 49 -1.0
545 49 1.0
891 49 1.0
892 49 -1.0
0 50 -4.0
321 50 -4.0
366 50 4.0
470 50 -1.0
472 50 -1.0
473 50 -1.0
474 50 -1.0
546 50 1.0
893 50 1.0
894 50 -1.0
0 51 -4.0
322 51 -4.0
367 51 4.0
475 51 -1.0
476 51 -1.0
477 51 -1.0
479 51 -1.0
547 51 1.0
895 51 1.0
896 51 -1.0
0 52 -3.0
323 52 -3.0
368 52 3.0
475 52 -1.0
477 52 -1.0
478 52 -1.0
480 52 -1.0
548 52 1.0
897 52 1.0
898 52 -1.0
0 53 -2.0
324 53 -2.0
369 53 2.0
476 53 -1.0
478 53 -1.0
479 53 -1.0
480 53 -1.0
549 53 1.0
899 53 1.0
900 53 -1.0
0 54 -5.0
325 54 -5.0
370 54 5.0
481 54 -1.0
482 54 -1.0
483 54 -1.0
485 54 -1.0
550 54 1.0
901 54 1.0
902 54 -1.0
0 55 -6.0
326 55 -6.0
371 55 6.0
481 55 -1.0
483 55 -1.0
484 55 -1.0
486 55 -1.0
551 55 1.0
903 55 1.0
904 55 -1.0
0 56 -7.0
327 56 -7.0
372 56 7.0
482 56 -1.0
484 56 -1.0
485 56 -1.0
486 56 -1.0
552 56 1.0
905 56 1.0
906 56 -1.0
0 57 -2.0
328 57 -2.0
373 57 2.0
487 57 -1.0
488 57 -1.0
489 57 -1.0
491 57 -1.0
553 57 1.0
907 57 1.0
908 57 -1.0
0 58 -5.0
329 58 -5.0
374 58 5.0
487 58 -1.0
489 58 -1.0
490 58 -1.0
492 58 -1.0
554 58 1.0
909 58 1.0
910 58 -1.0
0 59 -2.0
330 59 -2.0
375 59 2.0
488 59 -1.0
490 59 -1.0
491 59 -1.0
492 59 -1.0
555 59 1.0
911 59 1.0
912 59 -1.0
0 60 -4.0
331 60 -4.0
376 60 4.0
493 60 -1.0
494 60 -1.0
495 60 -1.0
497 60 -1.0
556 60 1.0
913 60 1.0
914 60 -1.0
0 61 -7.0
332 61 -7.0
377 61 7.0
493 61 -1.0
495 61 -1.0
496 61 -1.0
498 61 -1.0
557 61 1.0
915 61 1.0
916 61 -1.0
0 62 -4.0
333 62 -4.0
378 62 4.0
494 62 -1.0
496 62 -1.0
497 62 -1.0
498 62 -1.0
558 62 1.0
917 62 1.0
918 62 -1.0
0 63 -3.0
334 63 -3.0
379 63 3.0
499 63 -1.0
500 63 -1.0
501 63 -1.0
503 63 -1.0
559 63 1.0
919 63 1.0
920 63 -1.0
0 64 -9.0
335 64 -9.0
380 64 9.0
499 64 -1.0
501 64 -1.0
502 64 -1.0
504 64 -1.0
560 64 1.0
921 64 1.0
922 64 -1.0
0 65 -3.0
336 65 -3.0
381 65 3.0
500 65 -1.0
502 65 -1.0
503 65 -1.0
504 65 -1.0
561 65 1.0
923 65 1.0
924 65 -1.0
0 66 -7.0
337 66 -7.0
382 66 7.0
505 66 -1.0
506 66 -1.0
507 66 -1.0
509 66 -1.0
562 66 1.0
925 66 1.0
926 66 -1.0
0 67 -2.0
338 67 -2.0
383 67 2.0
505 67 -1.0
507 67 -1.0
508 67 -1.0
510 67 -1.0
563 67 1.0
927 67 1.0
928 67 -1.0
0 68 -9.0
339 68 -9.0
384 68 9.0
506 68 -1.0
508 68 -1.0
509 68 -1.0
510 68 -1.0
564 68 1.0
929 68 1.0
930 68 -1.0
0 69 -3.0
340 69 -3.0
385 69 3.0
511 69 -1.0
512 69 -1.0
513 69 -1.0
515 69 -1.0
565 69 1.0
931 69 1.0
932 69 -1.0
0 70 -1.0
341 70 -1.0
386 70 1.0
511 70 -1.0
513 70 -1.0
514 70 -1.0
516 70 -1.0
566 70 1.0
933 70 1.0
934 70 -1.0
0 71 -9.0
342 71 -9.0
387 71 9.0
512 71 -1.0
514 71 -1.0
515 71 -1.0
516 71 -1.0
567 71 1.0
935 71 1.0
936 71 -1.0
0 72 -2.0
343 72 -2.0
388 72 2.0
517 72 -1.0
518 72 -1.0
519 72 -1.0
521 72 -1.0
568 72 1.0
937 72 1.0
938 72 -1.0
0 73 -6.0
344 73 -6.0
389 73 6.0
517 73 -1.0
519 73 -1.0
520 73 -1.0
522 73 -1.0
569 73 1.0
939 73 1.0
940 73 -1.0
0 74 -3.0
345 74 -3.0
390 74 3.0
518 74 -1.0
520 74 -1.0
521 74 -1.0
522 74 -1.0
570 74 1.0
941 74 1.0
942 74 -1.0
0 75 -4.0
346 75 -4.0
391 75 4.0
523 75 -1.0
524 75 -1.0
525 75 -1.0
527 75 -1.0
571 75 1.0
943 75 1.0
944 75 -1.0
0 76 -8.0
347 76 -8.0
392 76 8.0
523 76 -1.0
525 76 -1.0
526 76 -1.0
528 76 -1.0
572 76 1.0
945 76 1.0
946 76 -1.0
0 77 -1.0
348 77 -1.0
393 77 1.0
524 77 -1.0
526 77 -1.0
527 77 -1.0
528 77 -1.0
573 77 1.0
947 77 1.0
948 77 -1.0
0 78 -1.0
1 79 -1.0
31 79 1.0
43 79 -1.0
643 79 1.0
1 80 -1.0
49 80 1.0
61 80 -1.0
646 80 1.0
2 81 -1.0
35 81 1.0
44 81 -1.0
644 81 1.0
2 82 -1.0
53 82 1.0
62 82 -1.0
647 82 1.0
3 83 -1.0
39 83 1.0
45 83 -1.0
645 83 1.0
3 84 -1.0
57 84 1.0
63 84 -1.0
648 84 1.0
4 85 -1.0
34 85 -1.0
46 85 -1.0
649 85 1.0
4 86 -1.0
52 86 -1.0
64 86 -1.0
652 86 1.0
4 87 1.0
7 87 1.0
655 87 1.0
5 88 -1.0
38 88 -1.0
47 88 -1.0
650 88 1.0
5 89 -1.0
56 89 -1.0
65 89 -1.0
653 89 1.0
5 90 1.0
8 90 1.0
656 90 1.0
6 91 -1.0
42 91 -1.0
48 91 -1.0
651 91 1.0
6 92 -1.0
60 92 -1.0
66 92 -1.0
654 92 1.0
6 93 1.0
9 93 1.0
657 93 1.0
7 94 -1.0
10 94 1.0
661 94 1.0
8 95 -1.0
11 95 1.0
662 95 1.0
9 96 -1.0
12 96 1.0
663 96 1.0
10 97 -1.0
67 97 0.75
70 97 -0.75
73 97 -1.0
664 97 1.0
10 98 -1.0
79 98 1.0
91 98 -1.0
667 98 1.0
10 99 -1.0
97 99 1.0
100 99 -1.0
109 99 -1.0
670 99 1.0
11 100 -1.0
68 100 0.75
71 100 -0.75
74 100 -1.0
665 100 1.0
11 101 -1.0
83 101 1.0
92 101 -1.0
668 101 1.0
11 102 -1.0
98 102 1.0
101 102 -1.0
110 102 -1.0
671 102 1.0
12 103 -1.0
69 103 0.75
72 103 -0.75
75 103 -1.0
666 103 1.0
12 104 -1.0
87 104 1.0
93 104 -1.0
669 104 1.0
12 105 -1.0
99 105 1.0
102 105 -1.0
111 105 -1.0
672 105 1.0
13 106 1.0
67 106 -1.0
70 106 1.0
76 106 -1.0
679 106 1.0
13 107 -1.0
118 107 1.0
130 107 -1.0
688 107 1.0
13 108 -1.0
136 108 1.0
148 108 -1.0
691 108 1.0
14 109 1.0
68 109 -1.0
71 109 1.0
77 109 -1.0
680 109 1.0
14 110 -1.0
122 110 1.0
131 110 -1.0
689 110 1.0
14 111 -1.0
140 111 1.0
149 111 -1.0
692 111 1.0
15 112 1.0
69 112 -1.0
72 112 1.0
78 112 -1.0
681 112 1.0
15 113 -1.0
126 113 1.0
132 113 -1.0
690 113 1.0
15 114 -1.0
144 114 1.0
150 114 -1.0
693 114 1.0
16 115 1.0
97 115 -1.0
100 115 1.0
103 115 -1.0
106 115 1.0
115 115 -1.0
685 115 1.0
16 116 -1.0
172 116 0.9
175 116 -0.9
178 116 -1.0
694 116 1.0
16 117 -1.0
184 117 0.6
187 117 -0.6
190 117 -1.0
697 117 1.0
16 118 -1.0
196 118 1.0
208 118 -1.0
700 118 1.0
17 119 1.0
98 119 -1.0
101 119 1.0
104 119 -1.0
107 119 1.0
116 119 -1.0
686 119 1.0
17 120 -1.0
173 120 0.9
176 120 -0.9
179 120 -1.0
695 120 1.0
17 121 -1.0
185 121 0.6
188 121 -0.6
191 121 -1.0
698 121 1.0
17 122 -1.0
200 122 1.0
209 122 -1.0
701 122 1.0
18 123 1.0
99 123 -1.0
102 123 1.0
105 123 -1.0
108 123 1.0
117 123 -1.0
687 123 1.0
18 124 -1.0
174 124 0.9
177 124 -0.9
180 124 -1.0
696 124 1.0
18 125 -1.0
186 125 0.6
189 125 -0.6
192 125 -1.0
699 125 1.0
18 126 -1.0
204 126 1.0
210 126 -1.0
702 126 1.0
19 127 1.0
157 127 -1.0
169 127 -1.0
709 127 1.0
19 128 -1.0
253 128 1.0
265 128 -1.0
721 128 1.0
19 129 -1.0
271 129 1.0
295 129 -1.0
724 129 1.0
20 130 1.0
161 130 -1.0
170 130 -1.0
710 130 1.0
20 131 -1.0
257 131 1.0
266 131 -1.0
722 131 1.0
20 132 -1.0
275 132 1.0
296 132 -1.0
725 132 1.0
21 133 1.0
165 133 -1.0
171 133 -1.0
711 133 1.0
21 134 -1.0
261 134 1.0
267 134 -1.0
723 134 1.0
21 135 -1.0
279 135 1.0
297 135 -1.0
726 135 1.0
22 136 -1.0
172 136 -1.0
175 136 1.0
181 136 -1.0
712 136 1.0
22 137 1.0
283 137 1.0
298 137 -1.0
739 137 1.0
23 138 -1.0
173 138 -1.0
176 138 1.0
182 138 -1.0
713 138 1.0
23 139 1.0
287 139 1.0
299 139 -1.0
740 139 1.0
24 140 -1.0
174 140 -1.0
177 140 1.0
183 140 -1.0
714 140 1.0
24 141 1.0
291 141 1.0
300 141 -1.0
741 141 1.0
25 142 -1.0
742 142 1.0
25 143 -1.0
745 143 1.0
26 144 -1.0
743 144 1.0
26 145 -1.0
746 145 1.0
27 146 -1.0
744 146 1.0
27 147 -1.0
747 147 1.0
28 148 -1.0
748 148 1.0
28 149 -1.0
751 149 1.0
28 150 -1.0
754 150 1.0
29 151 -1.0
749 151 1.0
29 152 -1.0
752 152 1.0
29 153 -1.0
755 153 1.0
30 154 -1.0
750 154 1.0
30 155 -1.0
753 155 1.0
30 156 -1.0
756 156 1.0
33 157 1.0
34 157 1.0
34 158 -1.0
43 158 40.0
46 158 3.71357206670431
394 158 -1.0
395 158 -1.0
529 158 -1.0
530 158 1.0
531 158 1.0
574 158 1.0
598 158 1.0
601 158 1.0
604 158 1.0
769 158 1.0
770 158 -1.0
37 159 1.0
38 159 1.0
38 160 -1.0
44 160 40.0
47 160 3.71357206670431
394 160 1.0
396 160 -1.0
530 160 -1.0
531 160 1.0
575 160 1.0
599 160 1.0
602 160 1.0
605 160 1.0
771 160 1.0
772 160 -1.0
41 161 1.0
42 161 1.0
42 162 -1.0
45 162 40.0
48 162 3.71357206670431
395 162 1.0
396 162 1.0
531 162 -1.0
576 162 1.0
600 162 1.0
603 162 1.0
606 162 1.0
773 162 1.0
774 162 -1.0
51 163 1.0
52 163 1.2
52 164 -1.0
61 164 40.0
64 164 4.45628648004517
397 164 -1.0
398 164 -1.0
532 164 -1.0
533 164 1.0
534 164 1.0
574 164 1.0
598 164 1.0
601 164 1.0
604 164 1.0
775 164 1.0
776 164 -1.0
55 165 1.0
56 165 1.2
56 166 -1.0
62 166 40.0
65 166 4.45628648004517
397 166 1.0
399 166 -1.0
533 166 -1.0
534 166 1.0
575 166 1.0
599 166 1.0
602 166 1.0
605 166 1.0
777 166 1.0
778 166 -1.0
59 167 1.0
60 167 1.2
60 168 -1.0
63 168 40.0
66 168 4.45628648004517
398 168 1.0
399 168 1.0
534 168 -1.0
576 168 1.0
600 168 1.0
603 168 1.0
606 168 1.0
779 168 1.0
780 168 -1.0
67 169 -1.0
70 169 -1.0
73 169 4.45628648004517
76 169 3.34221486003388
400 169 -1.0
401 169 -1.0
535 169 -1.0
536 169 1.0
537 169 1.0
577 169 -1.0
598 169 -1.0
607 169 1.0
610 169 1.0
781 169 1.0
782 169 -1.0
68 170 -1.0
71 170 -1.0
74 170 4.45628648004517
77 170 3.34221486003388
400 170 1.0
402 170 -1.0
536 170 -1.0
537 170 1.0
578 170 -1.0
599 170 -1.0
608 170 1.0
611 170 1.0
783 170 1.0
784 170 -1.0
69 171 -1.0
72 171 -1.0
75 171 4.45628648004517
78 171 3.34221486003388
401 171 1.0
402 171 1.0
537 171 -1.0
579 171 -1.0
600 171 -1.0
609 171 1.0
612 171 1.0
785 171 1.0
786 171 -1.0
81 172 1.0
82 172 1.5
82 173 -1.0
94 173 -1.0
154 173 1.0
166 173 -1.0
682 173 1.0
82 174 -1.0
91 174 4.45628648004517
94 174 2.54515263975353
403 174 -1.0
404 174 -1.0
538 174 -1.0
539 174 1.0
540 174 1.0
586 174 -1.0
601 174 -1.0
613 174 1.0
787 174 1.0
788 174 -1.0
85 175 1.0
86 175 1.5
86 176 -1.0
95 176 -1.0
158 176 1.0
167 176 -1.0
683 176 1.0
86 177 -1.0
92 177 4.45628648004517
95 177 2.54515263975353
403 177 1.0
405 177 -1.0
539 177 -1.0
540 177 1.0
587 177 -1.0
602 177 -1.0
614 177 1.0
789 177 1.0
790 177 -1.0
89 178 1.0
90 178 1.5
90 179 -1.0
96 179 -1.0
162 179 1.0
168 179 -1.0
684 179 1.0
90 180 -1.0
93 180 4.45628648004517
96 180 2.54515263975353
404 180 1.0
405 180 1.0
540 180 -1.0
588 180 -1.0
603 180 -1.0
615 180 1.0
791 180 1.0
792 180 -1.0
97 181 -1.0
100 181 -1.0
103 181 -1.0
106 181 -1.0
109 181 4.45628648004517
112 181 30.0
115 181 15.0
406 181 -1.0
407 181 -1.0
541 181 -1.0
542 181 1.0
543 181 1.0
592 181 -1.0
604 181 -1.0
616 181 1.0
619 181 1.0
622 181 1.0
793 181 1.0
794 181 -1.0
98 182 -1.0
101 182 -1.0
104 182 -1.0
107 182 -1.0
110 182 4.45628648004517
113 182 30.0
116 182 15.0
406 182 1.0
408 182 -1.0
542 182 -1.0
543 182 1.0
593 182 -1.0
605 182 -1.0
617 182 1.0
620 182 1.0
623 182 1.0
795 182 1.0
796 182 -1.0
99 183 -1.0
102 183 -1.0
105 183 -1.0
108 183 -1.0
111 183 4.45628648004517
114 183 30.0
117 183 15.0
407 183 1.0
408 183 1.0
543 183 -1.0
594 183 -1.0
606 183 -1.0
618 183 1.0
621 183 1.0
624 183 1.0
797 183 1.0
798 183 -1.0
120 184 1.0
121 184 1.25
121 185 -1.0
133 185 -1.0
214 185 0.9
217 185 -0.9
226 185 -1.0
703 185 1.0
121 186 -1.0
130 186 3.34221486003388
133 186 1.83548069293539
409 186 -1.0
410 186 -1.0
544 186 -1.0
545 186 1.0
546 186 1.0
577 186 1.0
580 186 -1.0
607 186 -1.0
625 186 1.0
799 186 1.0
800 186 -1.0
124 187 1.0
125 187 1.25
125 188 -1.0
134 188 -1.0
215 188 0.9
218 188 -0.9
227 188 -1.0
704 188 1.0
125 189 -1.0
131 189 3.34221486003388
134 189 1.83548069293539
409 189 1.0
411 189 -1.0
545 189 -1.0
546 189 1.0
578 189 1.0
581 189 -1.0
608 189 -1.0
626 189 1.0
801 189 1.0
802 189 -1.0
128 190 1.0
129 190 1.25
129 191 -1.0
135 191 -1.0
216 191 0.9
219 191 -0.9
228 191 -1.0
705 191 1.0
129 192 -1.0
132 192 3.34221486003388
135 192 1.83548069293539
410 192 1.0
411 192 1.0
546 192 -1.0
579 192 1.0
582 192 -1.0
609 192 -1.0
627 192 1.0
803 192 1.0
804 192 -1.0
138 193 1.0
139 193 0.9
139 194 -1.0
151 194 -1.0
235 194 1.0
247 194 -1.0
706 194 1.0
139 195 -1.0
148 195 3.34221486003388
151 195 1.32154609891348
412 195 -1.0
413 195 -1.0
547 195 -1.0
548 195 1.0
549 195 1.0
577 195 1.0
583 195 -1.0
610 195 -1.0
628 195 1.0
805 195 1.0
806 195 -1.0
142 196 1.0
143 196 0.9
143 197 -1.0
152 197 -1.0
239 197 1.0
248 197 -1.0
707 197 1.0
143 198 -1.0
149 198 3.34221486003388
152 198 1.32154609891348
412 198 1.0
414 198 -1.0
548 198 -1.0
549 198 1.0
578 198 1.0
584 198 -1.0
611 198 -1.0
629 198 1.0
807 198 1.0
808 198 -1.0
146 199 1.0
147 199 0.9
147 200 -1.0
153 200 -1.0
243 200 1.0
249 200 -1.0
708 200 1.0
147 201 -1.0
150 201 3.34221486003388
153 201 1.32154609891348
413 201 1.0
414 201 1.0
549 201 -1.0
579 201 1.0
585 201 -1.0
612 201 -1.0
630 201 1.0
809 201 1.0
810 201 -1.0
156 202 1.0
157 202 1.0
157 203 -1.0
166 203 2.54515263975353
169 203 1.26558121681553
415 203 -1.0
416 203 -1.0
550 203 -1.0
551 203 1.0
552 203 1.0
586 203 1.0
589 203 -1.0
613 203 -1.0
631 203 1.0
634 203 1.0
811 203 1.0
812 203 -1.0
160 204 1.0
161 204 1.0
161 205 -1.0
167 205 2.54515263975353
170 205 1.26558121681553
415 205 1.0
417 205 -1.0
551 205 -1.0
552 205 1.0
587 205 1.0
590 205 -1.0
614 205 -1.0
632 205 1.0
635 205 1.0
813 205 1.0
814 205 -1.0
164 206 1.0
165 206 1.0
165 207 -1.0
168 207 2.54515263975353
171 207 1.26558121681553
416 207 1.0
417 207 1.0
552 207 -1.0
588 207 1.0
591 207 -1.0
615 207 -1.0
633 207 1.0
636 207 1.0
815 207 1.0
816 207 -1.0
172 208 -1.0
175 208 -1.0
178 208 15.0
181 208 13.5
418 208 -1.0
419 208 -1.0
553 208 -1.0
554 208 1.0
555 208 1.0
592 208 1.0
595 208 -1.0
616 208 -1.0
817 208 1.0
818 208 -1.0
173 209 -1.0
176 209 -1.0
179 209 15.0
182 209 13.5
418 209 1.0
420 209 -1.0
554 209 -1.0
555 209 1.0
593 209 1.0
596 209 -1.0
617 209 -1.0
819 209 1.0
820 209 -1.0
174 210 -1.0
177 210 -1.0
180 210 15.0
183 210 13.5
419 210 1.0
420 210 1.0
555 210 -1.0
594 210 1.0
597 210 -1.0
618 210 -1.0
821 210 1.0
822 210 -1.0
184 211 -1.0
187 211 -1.0
190 211 15.0
193 211 9.0
421 211 -1.0
422 211 -1.0
556 211 -1.0
557 211 1.0
558 211 1.0
592 211 1.0
619 211 -1.0
823 211 1.0
824 211 -1.0
185 212 -1.0
188 212 -1.0
191 212 15.0
194 212 9.0
421 212 1.0
423 212 -1.0
557 212 -1.0
558 212 1.0
593 212 1.0
620 212 -1.0
825 212 1.0
826 212 -1.0
186 213 -1.0
189 213 -1.0
192 213 15.0
195 213 9.0
422 213 1.0
423 213 1.0
558 213 -1.0
594 213 1.0
621 213 -1.0
827 213 1.0
828 213 -1.0
198 214 1.0
199 214 1.1
199 215 -1.0
208 215 15.0
211 215 3.04984759446376
424 215 -1.0
425 215 -1.0
559 215 -1.0
560 215 1.0
561 215 1.0
592 215 1.0
622 215 -1.0
829 215 1.0
830 215 -1.0
202 216 1.0
203 216 1.1
203 217 -1.0
209 217 15.0
212 217 3.04984759446376
424 217 1.0
426 217 -1.0
560 217 -1.0
561 217 1.0
593 217 1.0
623 217 -1.0
831 217 1.0
832 217 -1.0
206 218 1.0
207 218 1.1
207 219 -1.0
210 219 15.0
213 219 3.04984759446376
425 219 1.0
426 219 1.0
561 219 -1.0
594 219 1.0
624 219 -1.0
833 219 1.0
834 219 -1.0
214 220 -1.0
217 220 -1.0
220 220 -1.0
223 220 -1.0
226 220 1.83548069293539
229 220 20.0
232 220 20.0
427 220 -1.0
428 220 -1.0
562 220 -1.0
563 220 1.0
564 220 1.0
580 220 1.0
625 220 -1.0
835 220 1.0
836 220 -1.0
215 221 -1.0
218 221 -1.0
221 221 -1.0
224 221 -1.0
227 221 1.83548069293539
230 221 20.0
233 221 20.0
427 221 1.0
429 221 -1.0
563 221 -1.0
564 221 1.0
581 221 1.0
626 221 -1.0
837 221 1.0
838 221 -1.0
216 222 -1.0
219 222 -1.0
222 222 -1.0
225 222 -1.0
228 222 1.83548069293539
231 222 20.0
234 222 20.0
428 222 1.0
429 222 1.0
564 222 -1.0
582 222 1.0
627 222 -1.0
839 222 1.0
840 222 -1.0
237 223 1.0
238 223 1.0
238 224 -1.0
247 224 1.32154609891348
250 224 0.842233385663186
430 224 -1.0
431 224 -1.0
565 224 -1.0
566 224 1.0
567 224 1.0
583 224 1.0
628 224 -1.0
841 224 1.0
842 224 -1.0
241 225 1.0
242 225 1.0
242 226 -1.0
248 226 1.32154609891348
251 226 0.842233385663186
430 226 1.0
432 226 -1.0
566 226 -1.0
567 226 1.0
584 226 1.0
629 226 -1.0
843 226 1.0
844 226 -1.0
245 227 1.0
246 227 1.0
246 228 -1.0
249 228 1.32154609891348
252 228 0.842233385663186
431 228 1.0
432 228 1.0
567 228 -1.0
585 228 1.0
630 228 -1.0
845 228 1.0
846 228 -1.0
255 229 1.0
256 229 0.7
256 230 -1.0
265 230 1.26558121681553
268 230 0.572481933717686
433 230 -1.0
434 230 -1.0
568 230 -1.0
569 230 1.0
570 230 1.0
589 230 1.0
631 230 -1.0
847 230 1.0
848 230 -1.0
259 231 1.0
260 231 0.7
260 232 -1.0
266 232 1.26558121681553
269 232 0.572481933717686
433 232 1.0
435 232 -1.0
569 232 -1.0
570 232 1.0
590 232 1.0
632 232 -1.0
849 232 1.0
850 232 -1.0
263 233 1.0
264 233 0.7
264 234 -1.0
267 234 1.26558121681553
270 234 0.572481933717686
434 234 1.0
435 234 1.0
570 234 -1.0
591 234 1.0
633 234 -1.0
851 234 1.0
852 234 -1.0
273 235 1.0
274 235 0.65
274 236 -1.0
286 236 -1.0
295 236 1.26558121681553
298 236 33.5
301 236 2.30162356062425
436 236 -1.0
437 236 -1.0
571 236 -1.0
572 236 1.0
573 236 1.0
589 236 1.0
595 236 1.0
634 236 -1.0
853 236 1.0
854 236 -1.0
277 237 1.0
278 237 0.65
278 238 -1.0
290 238 -1.0
296 238 1.26558121681553
299 238 33.5
302 238 2.30162356062425
436 238 1.0
438 238 -1.0
572 238 -1.0
573 238 1.0
590 238 1.0
596 238 1.0
635 238 -1.0
855 238 1.0
856 238 -1.0
281 239 1.0
282 239 0.65
282 240 -1.0
294 240 -1.0
297 240 1.26558121681553
300 240 33.5
303 240 2.30162356062425
437 240 1.0
438 240 1.0
573 240 -1.0
591 240 1.0
597 240 1.0
636 240 -1.0
857 240 1.0
858 240 -1.0
285 241 1.0
286 241 0.65
289 242 1.0
290 242 0.65
293 243 1.0
294 243 0.65
304 244 -1.0
349 244 1.0
305 245 -1.0
350 245 1.0
306 246 -1.0
351 246 1.0
307 247 -1.0
352 247 1.0
308 248 -1.0
353 248 1.0
309 249 -1.0
354 249 1.0
310 250 -1.0
355 250 1.0
311 251 -1.0
356 251 1.0
312 252 -1.0
357 252 1.0
313 253 -1.0
358 253 1.0
314 254 -1.0
359 254 1.0
315 255 -1.0
360 255 1.0
316 256 -1.0
361 256 1.0
317 257 -1.0
362 257 1.0
318 258 -1.0
363 258 1.0
319 259 -1.0
364 259 1.0
320 260 -1.0
365 260 1.0
321 261 -1.0
366 261 1.0
322 262 -1.0
367 262 1.0
323 263 -1.0
368 263 1.0
324 264 -1.0
369 264 1.0
325 265 -1.0
370 265 1.0
326 266 -1.0
371 266 1.0
327 267 -1.0
372 267 1.0
328 268 -1.0
373 268 1.0
329 269 -1.0
374 269 1.0
330 270 -1.0
375 270 1.0
331 271 -1.0
376 271 1.0
332 272 -1.0
377 272 1.0
333 273 -1.0
378 273 1.0
334 274 -1.0
379 274 1.0
335 275 -1.0
380 275 1.0
336 276 -1.0
381 276 1.0
337 277 -1.0
382 277 1.0
338 278 -1.0
383 278 1.0
339 279 -1.0
384 279 1.0
340 280 -1.0
385 280 1.0
341 281 -1.0
386 281 1.0
342 282 -1.0
387 282 1.0
343 283 -1.0
388 283 1.0
344 284 -1.0
389 284 1.0
345 285 -1.0
390 285 1.0
346 286 -1.0
391 286 1.0
347 287 -1.0
392 287 1.0
348 288 -1.0
393 288 1.0

BCOORD
336
31 1.0
32 1.0
34 1.0
35 1.0
36 1.0
38 1.0
39 1.0
40 1.0
42 1.0
49 1.0
50 1.0
52 1.0
53 1.0
54 1.0
56 1.0
57 1.0
58 1.0
60 1.0
67 1.0
68 1.0
69 1.0
70 1.0
71 1.0
72 1.0
79 1.0
80 1.0
82 1.0
83 1.0
84 1.0
86 1.0
87 1.0
88 1.0
90 1.0
97 1.0
98 1.0
99 1.0
100 1.0
101 1.0
102 1.0
103 1.0
104 1.0
105 1.0
106 1.0
107 1.0
108 1.0
118 1.0
119 1.0
121 1.0
122 1.0
123 1.0
125 1.0
126 1.0
127 1.0
129 1.0
136 1.0
137 1.0
139 1.0
140 1.0
141 1.0
143 1.0
144 1.0
145 1.0
147 1.0
154 1.0
155 1.0
157 1.0
158 1.0
159 1.0
161 1.0
162 1.0
163 1.0
165 1.0
172 1.0
173 1.0
174 1.0
175 1.0
176 1.0
177 1.0
184 1.0
185 1.0
186 1.0
187 1.0
188 1.0
189 1.0
196 1.0
197 1.0
199 1.0
200 1.0
201 1.0
203 1.0
204 1.0
205 1.0
207 1.0
214 1.0
215 1.0
216 1.0
217 1.0
218 1.0
219 1.0
220 1.0
221 1.0
222 1.0
223 1.0
224 1.0
225 1.0
235 1.0
236 1.0
238 1.0
239 1.0
240 1.0
242 1.0
243 1.0
244 1.0
246 1.0
253 1.0
254 1.0
256 1.0
257 1.0
258 1.0
260 1.0
261 1.0
262 1.0
264 1.0
271 1.0
272 1.0
274 1.0
275 1.0
276 1.0
278 1.0
279 1.0
280 1.0
282 1.0
283 1.0
284 1.0
286 1.0
287 1.0
288 1.0
290 1.0
291 1.0
292 1.0
294 1.0
439 1.0
440 1.0
441 1.0
442 1.0
443 1.0
444 1.0
445 1.0
446 1.0
447 1.0
448 1.0
449 1.0
450 1.0
451 1.0
452 1.0
453 1.0
454 1.0
455 1.0
456 1.0
457 1.0
458 1.0
459 1.0
460 1.0
461 1.0
462 1.0
463 1.0
464 1.0
465 1.0
466 1.0
467 1.0
468 1.0
469 1.0
470 1.0
471 1.0
472 1.0
473 1.0
474 1.0
475 1.0
476 1.0
477 1.0
478 1.0
479 1.0
480 1.0
481 1.0
482 1.0
483 1.0
484 1.0
485 1.0
486 1.0
487 1.0
488 1.0
489 1.0
490 1.0
491 1.0
492 1.0
493 1.0
494 1.0
495 1.0
496 1.0
497 1.0
498 1.0
499 1.0
500 1.0
501 1.0
502 1.0
503 1.0
504 1.0
505 1.0
506 1.0
507 1.0
508 1.0
509 1.0
510 1.0
511 1.0
512 1.0
513 1.0
514 1.0
515 1.0
516 1.0
517 1.0
518 1.0
519 1.0
520 1.0
521 1.0
522 1.0
523 1.0
524 1.0
525 1.0
526 1.0
527 1.0
528 1.0
574 -1.0
575 -1.0
576 -1.0
638 40.0
640 40.0
642 40.0
674 30.0
676 30.0
678 30.0
728 20.0
730 20.0
732 20.0
734 20.0
736 20.0
738 20.0
770 1.0
772 1.0
774 1.0
776 1.0
778 1.0
780 1.0
782 1.0
784 1.0
786 1.0
788 1.0
790 1.0
792 1.0
794 1.0
796 1.0
798 1.0
800 1.0
802 1.0
804 1.0
806 1.0
808 1.0
810 1.0
812 1.0
814 1.0
816 1.0
818 1.0
820 1.0
822 1.0
824 1.0
826 1.0
828 1.0
830 1.0
832 1.0
834 1.0
836 1.0
838 1.0
840 1.0
842 1.0
844 1.0
846 1.0
848 1.0
850 1.0
852 1.0
854 1.0
856 1.0
858 1.0
860 1.0
862 1.0
864 1.0
866 1.0
868 1.0
870 1.0
872 1.0
874 1.0
876 1.0
878 1.0
880 1.0
882 1.0
884 1.0
886 1.0
888 1.0
890 1.0
892 1.0
894 1.0
896 1.0
898 1.0
900 1.0
902 1.0
904 1.0
906 1.0
908 1.0
910 1.0
912 1.0
914 1.0
916 1.0
918 1.0
920 1.0
922 1.0
924 1.0
926 1.0
928 1.0
930 1.0
932 1.0
934 1.0
936 1.0
938 1.0
940 1.0
942 1.0
944 1.0
946 1.0
948 1.0
